; ./prepared/seahorn/./sv_comp_flat_small/loop-invgen/half_2_true-unreach-call.c.flat_000.smt2
(set-logic HORN)


(declare-fun |main_1| ( Int Int Int Int Int Int Int ) Bool)

(assert
  (forall ( (A Int) (B Int) (C Int) (D Int) (E Int) (F Int) (v_6 Int) ) 
    (=>
      (and
        (and true (= 0 v_6))
      )
      (main_1 v_6 A B C D E F)
    )
  )
)
(assert
  (forall ( (A Int) (B Int) (C Bool) (D Int) (E Bool) (F Int) (G Int) (H Int) (I Int) (J Int) (K Int) (L Bool) (M Int) (N Bool) (O Bool) (P Bool) (Q Bool) (R Int) (S Int) (v_19 Int) (v_20 Int) ) 
    (=>
      (and
        (main_1 v_19 F G H I J K)
        (and (= 0 v_19)
     (not (= (<= M (- 1)) C))
     (not (= (<= M 0) E))
     (or (= B S) (not N) (not Q))
     (or (= A R) (not N) (not Q))
     (or (= S 0) (not N) (not Q))
     (or (= R M) (not N) (not Q))
     (or E (not L) (not O))
     (or (not P) (and N Q))
     (or (not N) (and L O))
     (= P true)
     (= D (ite C 1 0))
     (= 1 v_20))
      )
      (main_1 v_20 F G H M A B)
    )
  )
)
(assert
  (forall ( (A Int) (B Int) (C Int) (D Bool) (E Bool) (F Bool) (G Bool) (H Int) (I Bool) (J Int) (K Int) (L Int) (M Int) (N Int) (O Int) (P Bool) (Q Int) (R Bool) (S Bool) (T Int) (U Int) (V Bool) (W Bool) (X Bool) (Y Bool) (Z Int) (A1 Int) (v_27 Int) (v_28 Int) ) 
    (=>
      (and
        (main_1 v_27 J K L M N O)
        (let ((a!1 (or (not R) (not (= (<= U 0) E))))
      (a!2 (or (not R) (not (= (<= Q 1) D)))))
  (and (= 0 v_27)
       (not (= (<= Q (- 1)) G))
       (not (= (<= Q 0) I))
       (or (= T Q) (not P) (not S))
       (or (= U T) (not P) (not S))
       (or (not I) (not P) (not S))
       (or (not F) (not W) (not R))
       (or (= B A1) (not V) (not Y))
       (or (= A Z) (not V) (not Y))
       (or (= A1 U) (not V) (not Y))
       (or (= Z 0) (not V) (not Y))
       (or (not R) (= C (div Q 2)))
       a!1
       a!2
       (or (not R) (not (= E F)))
       (or (not R) (and P S))
       (or D (not R))
       (or (not X) (and V Y))
       (or (not V) (and W R))
       (= X true)
       (= H (ite G 1 0))
       (= 2 v_28)))
      )
      (main_1 v_28 B A C Q N O)
    )
  )
)
(assert
  (forall ( (A Int) (B Bool) (C Bool) (D Bool) (E Bool) (F Int) (G Bool) (H Int) (I Int) (J Int) (K Int) (L Int) (M Int) (N Bool) (O Int) (P Bool) (Q Bool) (R Int) (S Int) (T Bool) (U Bool) (v_21 Int) (v_22 Int) ) 
    (=>
      (and
        (main_1 v_21 H I J K L M)
        (let ((a!1 (or (not P) (not (= (<= O 1) B))))
      (a!2 (or (not P) (not (= (<= S 0) C)))))
  (and (= 0 v_21)
       (not (= (<= O (- 1)) E))
       (not (= (<= O 0) G))
       (or D (not P) (not U))
       (or (= S R) (not N) (not Q))
       (or (= R O) (not N) (not Q))
       (or (not G) (not N) (not Q))
       (or (not T) (and P U))
       (or (not P) (= A (div O 2)))
       a!1
       a!2
       (or (not P) (not (= C D)))
       (or (not P) (and N Q))
       (or (not P) B)
       (= T true)
       (= F (ite E 1 0))
       (= 3 v_22)))
      )
      (main_1 v_22 H I A O L M)
    )
  )
)
(assert
  (forall ( (A Bool) (B Int) (C Int) (D Int) (E Int) (F Int) (G Int) (H Int) (I Int) (J Bool) (K Int) (L Int) (M Int) (N Int) (O Bool) (P Bool) (v_16 Int) (v_17 Int) ) 
    (=>
      (and
        (main_1 v_16 D E F G H I)
        (and (= 1 v_16)
     (= M (+ (- 1) H))
     (not (= (<= G N) A))
     (or (not P) (not J) (= B K))
     (or (not P) (not J) (= C L))
     (or (not P) (not J) (= L N))
     (or (not P) (not J) (= K M))
     (or A (not P) (not J))
     (or (not O) (and P J))
     (= O true)
     (= N (+ 2 I))
     (= 1 v_17))
      )
      (main_1 v_17 D E F G B C)
    )
  )
)
(assert
  (forall ( (A Int) (B Int) (C Int) (D Bool) (E Bool) (F Bool) (G Bool) (H Int) (I Int) (J Int) (K Int) (L Int) (M Int) (N Int) (O Bool) (P Bool) (Q Int) (R Int) (S Bool) (T Bool) (U Bool) (V Bool) (W Int) (X Int) (Y Int) (Z Int) (A1 Bool) (B1 Bool) (C1 Int) (D1 Bool) (v_30 Int) (v_31 Int) ) 
    (=>
      (and
        (main_1 v_30 I J K L M N)
        (let ((a!1 (or (not P) (not (= (<= R 0) E))))
      (a!2 (or (not P) (not (= (<= L 1) D)))))
  (and (= 1 v_30)
       (= Y (+ (- 1) M))
       (not (= (<= L Z) G))
       (or (= B X) (not S) (not V))
       (or (= A W) (not S) (not V))
       (or (= W 0) (not S) (not V))
       (or (= X R) (not S) (not V))
       (or (not B1) (not O) (= H C1))
       (or (not B1) (not O) (= C1 Y))
       (or (not G) (not O) (not B1))
       (or (= R Q) (not A1) (not D1))
       (or (= Q H) (not A1) (not D1))
       (or (not P) (not F) (not T))
       (or (not U) (and S V))
       (or (not S) (and P T))
       (or (not A1) (and B1 O))
       (or (not P) (= C (div L 2)))
       a!1
       a!2
       (or (not P) (not (= E F)))
       (or (not P) (and A1 D1))
       (or (not P) D)
       (= U true)
       (= Z (+ 2 N))
       (= 2 v_31)))
      )
      (main_1 v_31 B A C L M N)
    )
  )
)
(assert
  (forall ( (A Int) (B Bool) (C Bool) (D Bool) (E Bool) (F Int) (G Int) (H Int) (I Int) (J Int) (K Int) (L Int) (M Bool) (N Bool) (O Int) (P Int) (Q Bool) (R Bool) (S Int) (T Int) (U Bool) (V Bool) (W Int) (X Bool) (v_24 Int) (v_25 Int) ) 
    (=>
      (and
        (main_1 v_24 G H I J K L)
        (let ((a!1 (or (not N) (not (= (<= J 1) B))))
      (a!2 (or (not N) (not (= (<= P 0) C)))))
  (and (= 1 v_24)
       (= S (+ (- 1) K))
       (not (= (<= J T) E))
       (or D (not R) (not N))
       (or (not V) (not M) (= F W))
       (or (not V) (not M) (= W S))
       (or (not V) (not M) (not E))
       (or (= P O) (not U) (not X))
       (or (= O F) (not U) (not X))
       (or (not N) (= A (div J 2)))
       a!1
       a!2
       (or (not N) (not (= C D)))
       (or (not N) (and U X))
       (or B (not N))
       (or (not U) (and V M))
       (or (not Q) (and R N))
       (= Q true)
       (= T (+ 2 L))
       (= 3 v_25)))
      )
      (main_1 v_25 G H A J K L)
    )
  )
)
(assert
  (forall ( (A Bool) (B Bool) (C Bool) (D Int) (E Int) (F Int) (G Int) (H Int) (I Int) (J Int) (K Int) (L Bool) (M Int) (N Int) (O Int) (P Int) (Q Bool) (R Bool) (v_18 Int) (v_19 Int) ) 
    (=>
      (and
        (main_1 v_18 F G H I J K)
        (and (= 2 v_18)
     (= O (+ (- 1) F))
     (not (= (<= H P) A))
     (not (= (<= F 1) B))
     (not (= B C))
     (or (not R) (not L) (= D M))
     (or (not R) (not L) (= E N))
     (or (not R) (not L) (= N O))
     (or (not R) (not L) (= M P))
     (or (not C) (not R) (not L))
     (or (not Q) (and R L))
     (= Q true)
     (= A true)
     (= P (+ 1 G))
     (= 2 v_19))
      )
      (main_1 v_19 E D H I J K)
    )
  )
)
(assert
  (forall ( (A Bool) (B Bool) (C Bool) (D Int) (E Int) (F Int) (G Int) (H Int) (I Int) (J Bool) (K Bool) (L Int) (M Int) (N Bool) (O Bool) (P Bool) (v_16 Int) (v_17 Int) ) 
    (=>
      (and
        (main_1 v_16 D E F G H I)
        (and (= 2 v_16)
     (= L (+ (- 1) D))
     (not (= (<= F M) A))
     (not (= (<= D 1) B))
     (not (= B C))
     (or (not O) (not J) C)
     (or (not N) (and O J))
     (or (not K) (and N P))
     (= A true)
     (= K true)
     (= M (+ 1 E))
     (= 3 v_17))
      )
      (main_1 v_17 D E F G H I)
    )
  )
)
(assert
  (forall ( (A Int) (B Int) (C Int) (D Int) (E Int) (F Int) (v_6 Int) ) 
    (=>
      (and
        (main_1 v_6 A B C D E F)
        (= 3 v_6)
      )
      false
    )
  )
)

(check-sat)
(exit)
